SimulationType                  MonteCarlo
NumberOfCycles                  10000
PrintEvery                      1000
PrintPropertiesEvery            1000

Forcefield                      GenericMOFs_corrected
UseChargesFromCIFFile           yes

Framework                       0
FrameworkName                   ##### MOF name in the RASPA folder Structure/cif
UnitCells                       2 2 2
ExternalTemperature             300


Component 0 MoleculeName 		DMF
            MoleculeDefinition 		TraPPE
	    IdealGasRosenbluthWeight 	1.02164      ### Computed per molecule
            WidomProbability 		1.0
            CreateNumberOfMolecules 	0

